WARNING: for repeatability, setting FPU to use double precision
Reading from standard input... Use '--help' for help.
============================[ Problem Statistics ]=============================
|                                                                             |
|  Number of variables:          8000                                         |
|  Number of clauses:           67195                                         |
|  Parse time:                   0.01 s                                       |
|  Simplification time:          0.00 s                                       |
|                                                                             |
===============================================================================
Solved by simplification
restarts              : 0
conflicts             : 0              (0 /sec)
decisions             : 0              (-nan % random) (0 /sec)
propagations          : 6891           (894819 /sec)
conflict literals     : 0              (-nan % deleted)
actual reward         : -nan
Memory used           : 11.00 MB
CPU time              : 0.007701 s

UNSATISFIABLE
